NAME: tsp20-5
TYPE: TSP
DIMENSION: 20
EDGE_WEIGHT_TYPE: EUC_2D
NODE_COORD_SECTION
0 27 88
1 62 35
2 65 24
3 69 10
4 81 10
5 76 72
6 34 20
7 98 78
8 5 68
9 35 97
10 87 58
11 72 25
12 83 75
13 94 56
14 89 78
15 20 83
16 7 72
17 9 55
18 86 46
19 78 49
EOF